c n orig vars 88
p cnf 90 221
1 2 -89 0
3 4 -89 0
5 6 -89 0
7 8 -89 0
9 10 -89 0
11 12 -89 0
13 14 -89 0
15 16 -89 0
17 18 -89 0
19 20 -89 0
21 22 -89 0
23 24 -89 0
25 26 -89 0
27 28 -89 0
29 30 -89 0
31 32 -89 0
33 41 49 57 65 73 81 -90 0
34 42 50 58 66 74 82 -90 0
35 43 51 59 67 75 83 -90 0
36 44 52 60 68 76 84 -90 0
37 45 53 61 69 77 85 -90 0
38 46 54 62 70 78 86 -90 0
39 47 55 63 71 79 87 -90 0
40 48 56 64 72 80 88 -90 0
-33 -34 -90 0
-33 -35 -90 0
-33 -36 -90 0
-33 -37 -90 0
-33 -38 -90 0
-33 -39 -90 0
-33 -40 -90 0
-34 -35 -90 0
-34 -36 -90 0
-34 -37 -90 0
-34 -38 -90 0
-34 -39 -90 0
-34 -40 -90 0
-35 -36 -90 0
-35 -37 -90 0
-35 -38 -90 0
-35 -39 -90 0
-35 -40 -90 0
-36 -37 -90 0
-36 -38 -90 0
-36 -39 -90 0
-36 -40 -90 0
-37 -38 -90 0
-37 -39 -90 0
-37 -40 -90 0
-38 -39 -90 0
-38 -40 -90 0
-39 -40 -90 0
-41 -42 -90 0
-41 -43 -90 0
-41 -44 -90 0
-41 -45 -90 0
-41 -46 -90 0
-41 -47 -90 0
-41 -48 -90 0
-42 -43 -90 0
-42 -44 -90 0
-42 -45 -90 0
-42 -46 -90 0
-42 -47 -90 0
-42 -48 -90 0
-43 -44 -90 0
-43 -45 -90 0
-43 -46 -90 0
-43 -47 -90 0
-43 -48 -90 0
-44 -45 -90 0
-44 -46 -90 0
-44 -47 -90 0
-44 -48 -90 0
-45 -46 -90 0
-45 -47 -90 0
-45 -48 -90 0
-46 -47 -90 0
-46 -48 -90 0
-47 -48 -90 0
-49 -50 -90 0
-49 -51 -90 0
-49 -52 -90 0
-49 -53 -90 0
-49 -54 -90 0
-49 -55 -90 0
-49 -56 -90 0
-50 -51 -90 0
-50 -52 -90 0
-50 -53 -90 0
-50 -54 -90 0
-50 -55 -90 0
-50 -56 -90 0
-51 -52 -90 0
-51 -53 -90 0
-51 -54 -90 0
-51 -55 -90 0
-51 -56 -90 0
-52 -53 -90 0
-52 -54 -90 0
-52 -55 -90 0
-52 -56 -90 0
-53 -54 -90 0
-53 -55 -90 0
-53 -56 -90 0
-54 -55 -90 0
-54 -56 -90 0
-55 -56 -90 0
-57 -58 -90 0
-57 -59 -90 0
-57 -60 -90 0
-57 -61 -90 0
-57 -62 -90 0
-57 -63 -90 0
-57 -64 -90 0
-58 -59 -90 0
-58 -60 -90 0
-58 -61 -90 0
-58 -62 -90 0
-58 -63 -90 0
-58 -64 -90 0
-59 -60 -90 0
-59 -61 -90 0
-59 -62 -90 0
-59 -63 -90 0
-59 -64 -90 0
-60 -61 -90 0
-60 -62 -90 0
-60 -63 -90 0
-60 -64 -90 0
-61 -62 -90 0
-61 -63 -90 0
-61 -64 -90 0
-62 -63 -90 0
-62 -64 -90 0
-63 -64 -90 0
-65 -66 -90 0
-65 -67 -90 0
-65 -68 -90 0
-65 -69 -90 0
-65 -70 -90 0
-65 -71 -90 0
-65 -72 -90 0
-66 -67 -90 0
-66 -68 -90 0
-66 -69 -90 0
-66 -70 -90 0
-66 -71 -90 0
-66 -72 -90 0
-67 -68 -90 0
-67 -69 -90 0
-67 -70 -90 0
-67 -71 -90 0
-67 -72 -90 0
-68 -69 -90 0
-68 -70 -90 0
-68 -71 -90 0
-68 -72 -90 0
-69 -70 -90 0
-69 -71 -90 0
-69 -72 -90 0
-70 -71 -90 0
-70 -72 -90 0
-71 -72 -90 0
-73 -74 -90 0
-73 -75 -90 0
-73 -76 -90 0
-73 -77 -90 0
-73 -78 -90 0
-73 -79 -90 0
-73 -80 -90 0
-74 -75 -90 0
-74 -76 -90 0
-74 -77 -90 0
-74 -78 -90 0
-74 -79 -90 0
-74 -80 -90 0
-75 -76 -90 0
-75 -77 -90 0
-75 -78 -90 0
-75 -79 -90 0
-75 -80 -90 0
-76 -77 -90 0
-76 -78 -90 0
-76 -79 -90 0
-76 -80 -90 0
-77 -78 -90 0
-77 -79 -90 0
-77 -80 -90 0
-78 -79 -90 0
-78 -80 -90 0
-79 -80 -90 0
-81 -82 -90 0
-81 -83 -90 0
-81 -84 -90 0
-81 -85 -90 0
-81 -86 -90 0
-81 -87 -90 0
-81 -88 -90 0
-82 -83 -90 0
-82 -84 -90 0
-82 -85 -90 0
-82 -86 -90 0
-82 -87 -90 0
-82 -88 -90 0
-83 -84 -90 0
-83 -85 -90 0
-83 -86 -90 0
-83 -87 -90 0
-83 -88 -90 0
-84 -85 -90 0
-84 -86 -90 0
-84 -87 -90 0
-84 -88 -90 0
-85 -86 -90 0
-85 -87 -90 0
-85 -88 -90 0
-86 -87 -90 0
-86 -88 -90 0
-87 -88 -90 0
89 90 0
